p cnf 13 53
11 -2 9 
-8 -12 1 
-12 -5 -2 
-10 -7 -12 
-10 -2 13 
-3 -12 7 
3 6 8 
-11 7 -3 
6 -5 -7 
9 10 -1 
-2 9 -4 
1 -6 -2 
13 12 -6 
13 -5 1 
-4 1 3 
10 11 -13 
13 5 -6 
-10 -4 -13 
4 -8 -3 
13 -4 -5 
12 4 -8 
9 10 7 
-5 10 13 
-3 4 10 
-5 -1 -8 
-1 -12 -13 
-4 9 -3 
-9 6 -13 
-4 -11 -8 
7 4 -9 
-10 5 -1 
-5 -10 -3 
2 -13 1 
-6 8 7 
4 12 -10 
-2 6 12 
4 -1 -7 
-6 -7 -12 
11 -7 10 
1 12 -9 
-4 1 -11 
-1 5 8 
-6 -7 1 
6 12 -8 
-3 1 13 
1 -4 9 
-12 -8 -3 
10 -2 8 
-11 -2 -8 
-13 10 8 
-4 -9 -6 
-5 2 -11 
12 -11 -7 
